# sku frequency
1 1
2 0.9534746939693824
3 0.6024431856684139
4 0.22641274603076028
5 0.10702906069095341
6 0.09924969940597615
7 0.08391662906144048
8 0.08046722666986633
9 0.03644003590794828
10 0.03062012600882092
