# sku frequency
1 1
2 0.42021419425099055
3 0.3300264567416021
4 0.09148982674023093
5 0.08542431225720788
6 0.08481486111738193
7 0.03546341715470374
8 0.035447608499932774
9 0.020173053088195156
10 0.01360103049522613
